10	5
0	3	3	1	2
1	2	5	7
2	2	6	7
3	3	6	5	4
4	2	8	10
5	3	8	9	10
6	3	8	10	9
7	1	4
8	1	11
9	1	11
10	1	11
11	0
0	0	0	0	0	0	0
1	9	0	0	2	4	5
2	8	1	4	3	4	5
3	2	1	3	2	3	4
4	10	2	0	0	5	5
5	6	0	1	3	0	3
6	7	5	0	2	0	2
7	1	1	1	4	4	0
8	5	3	2	2	3	5
9	4	3	1	4	3	5
10	10	5	0	0	0	3
11	0	0	0	0	0	0
6	6	5	6	7
